(set-logic QF_IDL)
(declare-const x92 Int)
(declare-const x17 Int)
(declare-const x49 Int)
(declare-const x109 Int)
(declare-const x42 Int)
(declare-const x99 Int)
(declare-const x62 Int)
(declare-const x69 Int)
(declare-const x97 Int)
(declare-const x89 Int)
(declare-const x79 Int)
(declare-const x74 Int)
(declare-const x110 Int)
(declare-const x47 Int)
(declare-const x20 Int)
(declare-const x108 Int)
(declare-const x73 Int)
(declare-const x64 Int)
(declare-const x75 Int)
(declare-const x60 Int)
(declare-const x10 Int)
(declare-const x22 Int)
(declare-const x13 Int)
(declare-const x76 Int)
(declare-const x66 Int)
(declare-const x101 Int)
(declare-const x71 Int)
(declare-const x86 Int)
(declare-const x21 Int)
(declare-const x87 Int)
(declare-const x82 Int)
(declare-const x112 Int)
(declare-const x70 Int)
(declare-const x104 Int)
(declare-const x11 Int)
(declare-const x48 Int)
(declare-const x50 Int)
(declare-const x68 Int)
(declare-const x81 Int)
(declare-const x103 Int)
(declare-const x15 Int)
(declare-const x67 Int)
(declare-const x61 Int)
(declare-const x8 Int)
(declare-const x38 Int)
(declare-const x12 Int)
(declare-const x125 Int)
(declare-const x7 Int)
(declare-const x41 Int)
(declare-const x25 Int)
(declare-const x102 Int)
(declare-const x23 Int)
(declare-const x31 Int)
(declare-const x77 Int)
(declare-const x46 Int)
(declare-const x124 Int)
(declare-const x98 Int)
(declare-const x105 Int)
(declare-const x96 Int)
(declare-const x51 Int)
(declare-const x111 Int)
(declare-const x5 Int)
(declare-const x94 Int)
(declare-const x34 Int)
(declare-const x19 Int)
(declare-const x54 Int)
(declare-const x28 Int)
(declare-const x9 Int)
(declare-const x78 Int)
(declare-const x90 Int)
(declare-const x100 Int)
(declare-const x53 Int)
(declare-const x36 Int)
(declare-const x93 Int)
(declare-const x6 Int)
(declare-const x58 Int)
(declare-const x32 Int)
(declare-const x30 Int)
(declare-const x29 Int)
(declare-const x57 Int)
(declare-const x63 Int)
(declare-const x37 Int)
(declare-const x26 Int)
(declare-const x56 Int)
(declare-const x39 Int)
(declare-const x84 Int)
(declare-const x44 Int)
(declare-const x40 Int)
(declare-const x45 Int)
(declare-const x18 Int)
(declare-const x16 Int)
(declare-const x27 Int)
(declare-const x24 Int)
(declare-const x59 Int)
(declare-const x55 Int)
(declare-const x43 Int)
(declare-const x95 Int)
(declare-const x107 Int)
(declare-const x72 Int)
(declare-const x35 Int)
(declare-const x33 Int)
(declare-const x80 Int)
(declare-const x85 Int)
(declare-const x106 Int)
(declare-const x91 Int)
(declare-const x65 Int)
(declare-const x88 Int)
(declare-const x83 Int)
(declare-const x14 Int)
(declare-const x52 Int)
(assert (> x108 x107))
(assert (< x5 x6))
(assert (< x6 x7))
(assert (< x7 x8))
(assert (< x8 x9))
(assert (< x9 x10))
(assert (< x10 x11))
(assert (< x11 x12))
(assert (< x12 x13))
(assert (< x13 x14))
(assert (< x14 x15))
(assert (< x15 x16))
(assert (< x16 x17))
(assert (< x17 x18))
(assert (< x18 x19))
(assert (< x19 x20))
(assert (< x20 x21))
(assert (< x21 x22))
(assert (< x22 x23))
(assert (< x23 x24))
(assert (< x24 x25))
(assert (< x25 x26))
(assert (< x26 x27))
(assert (< x27 x28))
(assert (< x28 x29))
(assert (< x29 x30))
(assert (< x30 x31))
(assert (< x31 x32))
(assert (< x32 x33))
(assert (< x33 x34))
(assert (< x34 x35))
(assert (< x35 x36))
(assert (< x36 x37))
(assert (< x37 x38))
(assert (< x38 x39))
(assert (< x39 x40))
(assert (< x40 x41))
(assert (< x41 x42))
(assert (< x42 x43))
(assert (< x43 x44))
(assert (< x44 x45))
(assert (< x45 x46))
(assert (< x46 x47))
(assert (< x47 x48))
(assert (< x48 x49))
(assert (< x49 x50))
(assert (< x50 x51))
(assert (< x51 x52))
(assert (< x52 x53))
(assert (< x53 x54))
(assert (< x54 x55))
(assert (< x55 x56))
(assert (< x56 x57))
(assert (< x57 x58))
(assert (< x58 x59))
(assert (< x59 x60))
(assert (< x60 x61))
(assert (< x61 x62))
(assert (< x62 x63))
(assert (< x63 x64))
(assert (< x64 x65))
(assert (< x65 x66))
(assert (< x66 x67))
(assert (< x67 x68))
(assert (< x68 x69))
(assert (< x69 x70))
(assert (< x70 x71))
(assert (< x71 x72))
(assert (< x72 x73))
(assert (< x73 x74))
(assert (< x74 x75))
(assert (< x75 x76))
(assert (< x76 x77))
(assert (< x77 x78))
(assert (< x78 x79))
(assert (< x79 x80))
(assert (< x80 x81))
(assert (< x81 x82))
(assert (< x82 x83))
(assert (< x83 x84))
(assert (< x84 x85))
(assert (< x85 x86))
(assert (< x86 x87))
(assert (< x87 x88))
(assert (< x88 x89))
(assert (< x89 x90))
(assert (< x90 x91))
(assert (< x91 x92))
(assert (< x92 x93))
(assert (< x93 x94))
(assert (< x94 x95))
(assert (< x95 x96))
(assert (< x96 x97))
(assert (< x97 x98))
(assert (< x98 x99))
(assert (< x99 x100))
(assert (< x100 x101))
(assert (< x101 x102))
(assert (< x102 x103))
(assert (< x103 x104))
(assert (< x104 x105))
(assert (< x105 x106))
(assert (< x106 x108))
(assert (< x108 x109))
(assert (< x109 x110))
(assert (< x110 x111))
(assert (< x111 x112))
(assert (< x107 x124))
(assert (< x124 x125))
(assert (and true (and (> x124 x111)
 true)
)
)

(check-sat)
(get-model)
(exit)
